p cnf 148 384
a 18 20 30 37 43 50 56 68 2 4 10 12 109 117 125 142 1 9 17 0
d 95 1 9 0
d 105 109 17 0
d 3 2 0
d 5 4 0
d 6 2 4 0
d 7 1 2 4 0
d 8 1 2 4 0
d 11 10 0
d 13 10 12 0
d 14 9 10 12 0
d 15 9 10 12 0
d 16 1 2 4 9 10 12 0
d 19 18 0
d 21 20 0
d 22 18 20 0
d 23 17 18 20 0
d 24 17 18 20 0
d 25 1 2 4 9 10 12 17 18 20 0
d 26 18 0
d 27 18 20 0
d 28 18 20 0
d 29 18 20 0
d 31 30 18 0
d 32 30 18 20 0
d 33 30 18 20 0
d 34 18 20 30 0
d 35 30 0
d 36 18 20 30 0
d 38 18 20 30 37 0
d 39 18 20 30 37 0
d 40 18 20 30 37 0
d 41 37 0
d 42 30 37 0
d 44 43 18 0
d 45 43 18 20 0
d 46 30 37 43 18 20 0
d 47 30 37 43 18 20 0
d 48 18 20 30 37 43 0
d 49 43 0
d 51 43 50 0
d 52 18 20 30 37 0
d 53 43 50 18 20 30 37 0
d 54 43 50 18 20 30 37 0
d 55 18 20 30 37 43 50 0
d 57 56 18 0
d 58 56 18 20 0
d 59 30 37 43 0
d 60 50 0
d 61 30 37 43 50 0
d 62 56 18 20 30 37 43 50 0
d 63 56 18 20 30 37 43 50 0
d 64 18 20 30 37 43 50 56 0
d 65 43 50 0
d 66 56 0
d 67 43 50 56 0
d 69 43 50 56 68 0
d 70 18 20 30 37 43 50 56 68 0
d 71 18 20 30 37 43 50 56 68 0
d 72 18 20 30 37 43 50 56 68 0
d 73 68 0
d 74 56 68 0
d 75 2 18 0
d 76 2 18 20 0
d 77 56 68 2 18 20 0
d 78 30 37 43 50 56 68 2 18 20 0
d 79 30 37 43 50 56 68 2 18 20 0
d 80 18 20 30 37 43 50 56 68 2 0
d 81 43 50 56 68 0
d 82 2 4 0
d 83 2 4 18 20 30 37 0
d 84 43 50 56 68 2 4 18 20 30 37 0
d 85 43 50 56 68 2 4 18 20 30 37 0
d 86 18 20 30 37 43 50 56 68 2 4 0
d 87 56 68 2 0
d 88 56 68 2 4 0
d 89 10 18 0
d 90 10 18 20 0
d 91 10 18 20 30 37 43 50 0
d 92 56 68 2 4 10 18 20 30 37 43 50 0
d 93 56 68 2 4 10 18 20 30 37 43 50 0
d 94 18 20 30 37 43 50 56 68 2 4 10 0
d 96 18 20 30 37 43 50 56 68 0
d 97 1 9 18 20 30 37 43 50 56 68 0
d 98 2 4 10 0
d 99 2 4 10 12 0
d 100 2 4 10 12 18 20 30 37 43 50 56 68 0
d 101 1 9 18 20 30 37 43 50 56 68 2 4 10 12 0
d 102 18 20 30 37 43 50 56 68 2 4 10 1 9 12 0
d 103 12 0
d 104 10 12 0
d 106 10 12 109 17 0
d 107 30 37 43 50 56 68 2 4 0
d 108 10 12 109 17 30 37 43 50 56 68 2 4 0
d 110 109 18 0
d 111 109 18 20 0
d 112 10 12 109 18 20 0
d 113 10 12 109 18 20 30 37 43 50 56 68 2 4 0
d 114 10 12 109 17 30 37 43 50 56 68 2 4 18 20 0
d 115 18 20 30 37 43 50 56 68 2 4 10 1 9 12 109 17 0
d 116 109 0
d 118 109 117 0
d 119 109 117 18 20 30 37 0
d 120 2 4 10 12 0
d 121 43 50 56 68 2 4 10 12 0
d 122 109 117 18 20 30 37 43 50 56 68 2 4 10 12 0
d 123 109 117 18 20 30 37 43 50 56 68 2 4 10 12 0
d 124 18 20 30 37 43 50 56 68 2 4 10 1 9 12 109 17 117 0
d 126 125 18 20 0
d 127 125 18 20 30 37 43 50 0
d 128 10 12 109 0
d 129 117 0
d 130 10 12 109 117 0
d 131 56 68 2 4 10 12 109 117 0
d 132 125 18 20 30 37 43 50 56 68 2 4 10 12 109 117 0
d 133 125 18 0
d 134 125 18 20 0
d 135 125 18 20 30 37 43 50 0
d 136 125 18 20 30 37 43 50 56 68 2 4 10 12 109 117 0
d 137 125 18 20 30 37 43 50 56 68 2 4 10 12 109 117 0
d 138 18 20 30 37 43 50 56 68 2 4 10 1 9 12 109 17 117 125 0
d 139 109 117 0
d 140 125 0
d 141 109 117 125 0
d 143 109 117 125 142 0
d 144 2 4 10 12 109 117 125 142 0
d 145 18 20 30 37 43 50 56 68 2 4 10 12 109 117 125 142 0
d 146 18 20 30 37 43 50 56 68 2 4 10 12 109 117 125 142 0
d 147 18 20 30 37 43 50 56 68 2 4 10 1 9 12 109 17 117 125 142 0
d 148 1 2 4 9 10 12 17 18 20 30 37 43 50 56 68 109 117 125 142 0
3 2 0
-3 -2 0
5 4 0
-5 -4 0
-6 3 0
-6 5 0
6 -3 -5 0
7 -1 -6 0
7 1 6 0
-7 -1 6 0
-7 1 -6 0
8 7 0
-8 -7 0
11 10 0
-11 -10 0
-13 11 0
-13 12 0
13 -11 -12 0
14 -9 -13 0
14 9 13 0
-14 -9 13 0
-14 9 -13 0
15 14 0
-15 -14 0
16 -8 0
16 -15 0
-16 8 15 0
19 18 0
-19 -18 0
21 20 0
-21 -20 0
-22 19 0
-22 21 0
22 -19 -21 0
23 -17 -22 0
23 17 22 0
-23 -17 22 0
-23 17 -22 0
24 23 0
-24 -23 0
25 -16 0
25 -24 0
-25 16 24 0
26 -18 -18 0
26 18 18 0
-26 -18 18 0
-26 18 -18 0
-27 19 0
-27 20 0
27 -19 -20 0
28 -27 -27 0
28 27 27 0
-28 -27 27 0
-28 27 -27 0
-29 26 0
-29 28 0
29 -26 -28 0
-31 30 0
-31 19 0
31 -30 -19 0
-32 31 0
-32 21 0
32 -31 -21 0
33 -32 -32 0
33 32 32 0
-33 -32 32 0
-33 32 -32 0
-34 29 0
-34 33 0
34 -29 -33 0
35 30 0
-35 -30 0
-36 22 0
-36 35 0
36 -22 -35 0
-38 36 0
-38 37 0
38 -36 -37 0
39 -38 -38 0
39 38 38 0
-39 -38 38 0
-39 38 -38 0
-40 34 0
-40 39 0
40 -34 -39 0
41 37 0
-41 -37 0
-42 35 0
-42 41 0
42 -35 -41 0
-44 43 0
-44 19 0
44 -43 -19 0
-45 44 0
-45 21 0
45 -44 -21 0
-46 42 0
-46 45 0
46 -42 -45 0
47 -46 -46 0
47 46 46 0
-47 -46 46 0
-47 46 -46 0
-48 40 0
-48 47 0
48 -40 -47 0
49 43 0
-49 -43 0
-51 49 0
-51 50 0
51 -49 -50 0
-52 36 0
-52 41 0
52 -36 -41 0
-53 51 0
-53 52 0
53 -51 -52 0
54 -53 -53 0
54 53 53 0
-54 -53 53 0
-54 53 -53 0
-55 48 0
-55 54 0
55 -48 -54 0
-57 56 0
-57 19 0
57 -56 -19 0
-58 57 0
-58 21 0
58 -57 -21 0
-59 42 0
-59 49 0
59 -42 -49 0
60 50 0
-60 -50 0
-61 59 0
-61 60 0
61 -59 -60 0
-62 58 0
-62 61 0
62 -58 -61 0
63 -62 -62 0
63 62 62 0
-63 -62 62 0
-63 62 -62 0
-64 55 0
-64 63 0
64 -55 -63 0
-65 49 0
-65 60 0
65 -49 -60 0
66 56 0
-66 -56 0
-67 65 0
-67 66 0
67 -65 -66 0
-69 67 0
-69 68 0
69 -67 -68 0
-70 52 0
-70 69 0
70 -52 -69 0
71 -70 -70 0
71 70 70 0
-71 -70 70 0
-71 70 -70 0
-72 64 0
-72 71 0
72 -64 -71 0
73 68 0
-73 -68 0
-74 66 0
-74 73 0
74 -66 -73 0
-75 2 0
-75 19 0
75 -2 -19 0
-76 75 0
-76 21 0
76 -75 -21 0
-77 74 0
-77 76 0
77 -74 -76 0
-78 61 0
-78 77 0
78 -61 -77 0
79 -78 -78 0
79 78 78 0
-79 -78 78 0
-79 78 -78 0
-80 72 0
-80 79 0
80 -72 -79 0
-81 67 0
-81 73 0
81 -67 -73 0
-82 3 0
-82 4 0
82 -3 -4 0
-83 82 0
-83 52 0
83 -82 -52 0
-84 81 0
-84 83 0
84 -81 -83 0
85 -84 -84 0
85 84 84 0
-85 -84 84 0
-85 84 -84 0
-86 80 0
-86 85 0
86 -80 -85 0
-87 74 0
-87 3 0
87 -74 -3 0
-88 87 0
-88 5 0
88 -87 -5 0
-89 10 0
-89 19 0
89 -10 -19 0
-90 89 0
-90 21 0
90 -89 -21 0
-91 90 0
-91 61 0
91 -90 -61 0
-92 88 0
-92 91 0
92 -88 -91 0
93 -92 -92 0
93 92 92 0
-93 -92 92 0
-93 92 -92 0
-94 86 0
-94 93 0
94 -86 -93 0
-96 52 0
-96 81 0
96 -52 -81 0
-97 95 0
-97 96 0
97 -95 -96 0
-98 6 0
-98 11 0
98 -6 -11 0
-99 98 0
-99 12 0
99 -98 -12 0
-100 99 0
-100 96 0
100 -99 -96 0
101 -97 -100 0
101 97 100 0
-101 -97 100 0
-101 97 -100 0
-102 94 0
-102 101 0
102 -94 -101 0
103 12 0
-103 -12 0
-104 11 0
-104 103 0
104 -11 -103 0
-106 104 0
-106 105 0
106 -104 -105 0
-107 61 0
-107 88 0
107 -61 -88 0
-108 106 0
-108 107 0
108 -106 -107 0
-110 109 0
-110 19 0
110 -109 -19 0
-111 110 0
-111 21 0
111 -110 -21 0
-112 104 0
-112 111 0
112 -104 -111 0
-113 112 0
-113 107 0
113 -112 -107 0
114 -108 -113 0
114 108 113 0
-114 -108 113 0
-114 108 -113 0
-115 102 0
-115 114 0
115 -102 -114 0
116 109 0
-116 -109 0
-118 116 0
-118 117 0
118 -116 -117 0
-119 118 0
-119 52 0
119 -118 -52 0
-120 98 0
-120 103 0
120 -98 -103 0
-121 81 0
-121 120 0
121 -81 -120 0
-122 119 0
-122 121 0
122 -119 -121 0
123 -122 -122 0
123 122 122 0
-123 -122 122 0
-123 122 -122 0
-124 115 0
-124 123 0
124 -115 -123 0
126 -125 22 0
126 125 -22 0
-126 -125 -22 0
-126 125 22 0
-127 126 0
-127 61 0
127 -126 -61 0
-128 104 0
-128 116 0
128 -104 -116 0
129 117 0
-129 -117 0
-130 128 0
-130 129 0
130 -128 -129 0
-131 88 0
-131 130 0
131 -88 -130 0
-132 127 0
-132 131 0
132 -127 -131 0
-133 125 0
-133 19 0
133 -125 -19 0
-134 133 0
-134 21 0
134 -133 -21 0
-135 134 0
-135 61 0
135 -134 -61 0
-136 135 0
-136 131 0
136 -135 -131 0
137 -132 -136 0
137 132 136 0
-137 -132 136 0
-137 132 -136 0
-138 124 0
-138 137 0
138 -124 -137 0
-139 116 0
-139 129 0
139 -116 -129 0
140 125 0
-140 -125 0
-141 139 0
-141 140 0
141 -139 -140 0
-143 141 0
-143 142 0
143 -141 -142 0
-144 120 0
-144 143 0
144 -120 -143 0
-145 96 0
-145 144 0
145 -96 -144 0
146 -145 -145 0
146 145 145 0
-146 -145 145 0
-146 145 -145 0
-147 138 0
-147 146 0
147 -138 -146 0
148 -25 0
148 -147 0
-148 25 147 0
148 0
